NAME : tsp30_29.173.tour
COMMENT : Length = 173
COMMENT : Found by LKH [Keld Helsgaun]
TYPE : TOUR
DIMENSION : 30
TOUR_SECTION
1
21
25
7
29
28
16
9
13
12
5
30
17
18
20
19
15
4
22
6
26
3
8
2
14
24
11
27
10
23
-1
EOF
